262 5
10 10 10 10 10 

0 0 0 0 0 0 1 2 
0 0 0 0 0 0 5 3 4 5 6 8 
7 4 0 0 0 0 2 12 7 
1 10 0 0 0 0 2 12 7 
4 5 0 0 0 0 2 12 7 
7 7 0 0 0 0 1 7 
6 10 0 0 0 0 3 11 10 9 
6 4 0 0 0 0 3 11 10 9 
9 10 0 0 0 0 1 13 
9 7 0 0 0 0 1 13 
6 10 0 0 0 0 1 13 
1 8 0 0 0 0 1 13 
0 0 0 0 0 0 1 14 
0 0 0 0 0 0 7 15 17 20 21 22 23 24 
5 3 0 0 0 0 2 19 16 
7 7 0 0 0 0 1 18 
8 6 0 0 0 0 1 18 
1 7 0 0 0 0 1 25 
7 10 0 0 0 0 1 25 
8 10 0 0 0 0 1 25 
3 6 0 0 0 0 1 25 
8 9 0 0 0 0 1 25 
7 10 0 0 0 0 1 25 
5 7 0 0 0 0 1 25 
0 0 0 0 0 0 3 26 58 90 
0 0 0 0 0 0 6 27 28 29 30 31 56 
7 0 2 3 4 0 5 39 35 34 33 32 
3 0 8 5 8 0 6 48 39 38 35 33 32 
10 0 9 10 8 0 5 39 37 35 33 32 
9 0 2 7 10 0 4 42 35 34 32 
10 0 7 6 8 0 4 55 42 36 34 
4 0 7 7 7 0 2 41 36 
9 0 7 10 10 0 3 43 42 40 
7 0 10 10 6 0 2 38 37 
5 0 9 10 10 0 2 43 40 
5 0 9 5 9 0 1 40 
9 0 10 9 9 0 1 40 
2 0 10 6 6 0 1 40 
10 0 10 10 10 0 1 40 
1 0 9 7 10 0 6 54 53 52 50 47 44 
8 0 7 8 3 0 4 53 47 44 43 
8 0 7 5 6 0 4 51 50 44 147 
2 0 8 6 7 0 3 52 51 50 
1 0 7 7 7 0 1 45 
6 0 8 10 10 0 1 46 
7 0 6 10 10 0 1 49 
10 0 8 5 7 0 1 51 
4 0 10 6 8 0 1 50 
3 0 3 6 7 0 1 57 
8 0 6 5 5 0 1 57 
2 0 10 10 7 0 1 57 
5 0 7 10 4 0 1 57 
8 0 8 9 6 0 1 57 
9 0 5 4 7 0 1 57 
2 0 8 10 6 0 1 57 
4 0 8 9 10 0 1 57 
0 0 0 0 0 0 1 262 
0 0 0 0 0 0 7 59 60 61 63 67 87 88 
2 5 5 0 0 3 4 83 68 64 62 
8 4 8 0 0 8 6 84 83 82 81 80 65 
3 9 8 0 0 10 4 85 84 75 65 
8 8 9 0 0 9 3 80 74 65 
2 9 9 0 0 10 6 86 84 77 74 70 68 
7 10 8 0 0 10 3 78 69 66 
10 9 3 0 0 6 2 78 66 
3 10 5 0 0 5 3 79 73 70 
4 10 10 0 0 7 2 83 69 
3 6 7 0 0 10 3 80 78 72 
9 9 4 0 0 9 2 82 73 
5 7 5 0 0 7 1 71 
9 6 7 0 0 5 1 72 
8 9 9 0 0 7 2 76 99 
7 10 10 0 0 10 1 77 
9 9 10 0 0 10 1 81 
8 4 9 0 0 7 1 76 
10 10 4 0 0 3 1 89 
6 5 8 0 0 10 1 89 
5 6 7 0 0 10 1 89 
8 8 8 0 0 5 1 89 
1 6 10 0 0 10 1 89 
7 10 10 0 0 7 1 89 
3 6 6 0 0 3 1 89 
9 2 5 0 0 7 1 89 
2 5 10 0 0 9 1 89 
5 4 8 0 0 5 1 89 
10 10 8 0 0 7 1 89 
6 9 7 0 0 6 1 89 
1 10 8 0 0 10 1 89 
0 0 0 0 0 0 1 262 
0 0 0 0 0 0 5 91 94 95 99 100 
7 0 0 0 0 3 3 98 93 92 
10 0 0 0 0 7 2 97 96 
7 0 0 0 0 9 1 96 
3 0 0 0 0 10 2 96 224 
6 0 0 0 0 10 1 96 
9 0 0 0 0 10 1 101 
8 0 0 0 0 5 1 101 
1 0 0 0 0 8 1 101 
2 0 0 0 0 10 1 101 
5 0 0 0 0 3 1 101 
0 0 0 0 0 0 5 102 124 146 168 180 
0 0 0 0 0 0 7 103 104 105 107 108 121 122 
7 7 0 0 4 0 5 120 118 117 111 106 
1 10 0 0 9 0 8 118 117 115 114 112 111 110 126 
3 4 0 0 4 0 5 118 117 115 114 110 
7 10 0 0 10 0 2 115 109 
3 6 0 0 5 0 4 119 117 111 110 
8 5 0 0 9 0 4 115 114 111 110 
2 7 0 0 7 0 3 116 114 110 
2 4 0 0 6 0 1 113 
9 6 0 0 8 0 1 113 
1 8 0 0 10 0 1 116 
10 8 0 0 9 0 1 123 
7 10 0 0 8 0 1 123 
5 10 0 0 4 0 1 123 
8 9 0 0 8 0 1 123 
10 10 0 0 9 0 1 123 
5 5 0 0 10 0 1 123 
10 9 0 0 9 0 1 123 
5 2 0 0 8 0 1 123 
9 10 0 0 6 0 1 123 
10 10 0 0 7 0 1 123 
0 0 0 0 0 0 1 262 
0 0 0 0 0 0 8 125 126 127 128 129 132 135 144 
3 8 4 0 0 0 5 142 141 140 130 178 
3 4 3 0 0 0 5 143 142 141 137 133 
8 6 8 0 0 0 4 141 140 137 134 
8 8 8 0 0 0 4 141 140 137 133 
3 6 8 0 0 0 3 140 137 131 
10 5 9 0 0 0 4 143 139 137 136 
2 10 10 0 0 0 1 133 
9 10 10 0 0 0 3 142 141 140 
10 9 4 0 0 0 2 139 136 
1 4 4 0 0 0 2 139 136 
5 10 9 0 0 0 2 139 136 
4 9 8 0 0 0 1 138 
3 7 10 0 0 0 1 138 
9 6 8 0 0 0 1 145 
8 10 9 0 0 0 1 145 
5 6 10 0 0 0 1 145 
2 8 6 0 0 0 1 145 
9 4 8 0 0 0 1 145 
7 10 9 0 0 0 1 145 
10 10 5 0 0 0 1 145 
0 0 0 0 0 0 1 262 
0 0 0 0 0 0 4 147 148 150 152 
2 0 4 3 0 0 3 153 151 149 
3 0 3 5 0 0 3 159 153 151 
3 0 10 6 0 0 5 166 159 156 155 154 
1 0 9 8 0 0 2 154 153 
4 0 10 10 0 0 4 166 156 155 154 
3 0 9 7 0 0 5 166 159 158 157 156 
10 0 8 10 0 0 3 166 156 155 
10 0 8 10 0 0 4 161 160 158 157 
2 0 9 7 0 0 3 160 158 157 
8 0 4 9 0 0 3 165 161 160 
1 0 10 9 0 0 3 165 164 162 
4 0 7 3 0 0 3 164 163 162 
4 0 4 6 0 0 3 163 162 229 
5 0 3 5 0 0 1 163 
1 0 9 7 0 0 1 162 
2 0 10 10 0 0 1 167 
9 0 7 10 0 0 1 167 
6 0 10 8 0 0 1 167 
4 0 6 8 0 0 1 167 
8 0 10 9 0 0 1 167 
0 0 0 0 0 0 1 262 
0 0 0 0 0 0 5 169 170 171 177 178 
1 0 5 0 0 0 4 176 175 173 172 
4 0 5 0 0 0 3 176 175 173 
8 0 7 0 0 0 1 172 
3 0 9 0 0 0 1 174 
9 0 5 0 0 0 2 174 227 
4 0 8 0 0 0 1 179 
3 0 10 0 0 0 1 179 
8 0 7 0 0 0 1 179 
8 0 9 0 0 0 1 179 
6 0 10 0 0 0 1 179 
0 0 0 0 0 0 5 202 214 226 238 250 
0 0 0 0 0 0 8 181 182 183 184 185 186 187 190 
8 4 0 0 8 0 4 195 193 191 189 
6 7 0 0 5 0 4 193 189 188 254 
3 6 0 0 4 0 2 193 188 
10 9 0 0 9 0 2 193 188 
7 9 0 0 9 0 3 195 193 192 
1 8 0 0 10 0 3 195 193 192 
10 10 0 0 9 0 1 188 
3 8 0 0 4 0 2 195 192 
7 4 0 0 10 0 2 198 192 
8 9 0 0 7 0 2 198 192 
3 7 0 0 10 0 4 200 198 196 194 
4 10 0 0 10 0 3 200 196 194 
9 4 0 0 7 0 3 198 197 196 
10 9 0 0 6 0 2 199 197 
9 5 0 0 8 0 2 198 196 
8 7 0 0 8 0 1 201 
4 8 0 0 4 0 1 201 
2 10 0 0 9 0 1 201 
1 7 0 0 6 0 1 201 
6 9 0 0 7 0 1 201 
0 0 0 0 0 0 1 262 
0 0 0 0 0 0 4 203 204 206 212 
10 4 0 0 0 0 4 211 209 208 205 
3 3 0 0 0 0 3 210 209 205 
6 9 0 0 0 0 1 207 
2 9 0 0 0 0 1 208 
4 7 0 0 0 0 1 213 
5 6 0 0 0 0 1 213 
3 9 0 0 0 0 2 213 255 
10 9 0 0 0 0 1 213 
2 10 0 0 0 0 1 213 
5 9 0 0 0 0 1 213 
0 0 0 0 0 0 1 262 
0 0 0 0 0 0 6 215 216 217 218 219 239 
4 0 0 0 3 0 3 224 221 220 
1 0 0 0 8 0 3 224 221 220 
7 0 0 0 7 0 3 224 221 220 
5 0 0 0 10 0 2 224 220 
3 0 0 0 10 0 1 220 
7 0 0 0 6 0 2 223 222 
6 0 0 0 10 0 1 222 
8 0 0 0 9 0 1 225 
9 0 0 0 6 0 1 225 
2 0 0 0 6 0 1 225 
0 0 0 0 0 0 1 262 
0 0 0 0 0 0 4 227 228 230 236 
7 0 4 0 0 0 4 235 234 231 229 
8 0 7 0 0 0 4 235 233 232 231 
7 0 9 0 0 0 2 233 232 
3 0 10 0 0 0 2 234 231 
2 0 8 0 0 0 1 237 
8 0 5 0 0 0 1 237 
4 0 10 0 0 0 2 237 256 
1 0 7 0 0 0 1 237 
10 0 10 0 0 0 1 237 
2 0 5 0 0 0 1 237 
0 0 0 0 0 0 1 262 
0 0 0 0 0 0 4 239 240 244 253 
10 0 0 4 0 0 2 243 241 
6 0 0 7 0 0 2 242 241 
8 0 0 6 0 0 4 248 247 246 245 
3 0 0 10 0 0 4 248 247 246 245 
10 0 0 7 0 0 3 247 246 245 
7 0 0 8 0 0 3 247 246 245 
7 0 0 10 0 0 1 249 
6 0 0 8 0 0 1 249 
9 0 0 5 0 0 1 249 
1 0 0 10 0 0 1 249 
0 0 0 0 0 0 1 262 
0 0 0 0 0 0 6 251 252 254 255 256 260 
7 7 0 0 0 0 2 258 257 
6 5 0 0 0 0 1 253 
8 5 0 0 0 0 1 257 
7 10 0 0 0 0 1 259 
7 10 0 0 0 0 1 258 
6 7 0 0 0 0 1 257 
9 8 0 0 0 0 1 261 
2 10 0 0 0 0 1 261 
9 8 0 0 0 0 1 261 
9 5 0 0 0 0 1 261 
0 0 0 0 0 0 1 262 
0 0 0 0 0 0 0 
